4 
5  45 
6  00 15 30 45 57 
7  04 12 20 26 34 41 49 56 
8  04 11 19 26 34 41 49 56 
9  04 11 19 26 34 41 49 56 
10  04 11 19 26 34 41 49 56 
11  04 11 19 26 34 41 49 56 
12  04 11 19 26 34 41 49 56 
13  04 11 19 26 35 43 50 57 
14  05 12 20 27 35 42 50 57 
15  05 12 20 27 35 42 49 57 
16  04 12 19 27 34 42 49 57 
17  04 12 19 27 34 42 49 57 
18  04 12 19 27 34 42 49 57 
19  04 12 19 27 33 40 47 56 
20  04 12 19 26 34 41 48 56 
21  03 16 31 46 
22  01 16 31 46 59 
23  14 26 37 
0 
1 
